000 000 000 000 000 000 000 000 -99 -99 -99 -99 -99 -99 000 -99 -99 -99 -99 000 000 -99 -99 -99 000 000 -99 -99 000 -99 000
000 000 000 000 000 000 000 000 -99 -99 -99 -99 -99 -99 000 000 -99 -99 -99 000 000 -99 -99 -99 000 000 000 -99 -99 -99 000
-99 000 000 000 000 000 000 000 000 000 -99 -99 -99 -99 000 000 -99 -99 -99 -99 000 000 -99 -99 000 000 000 000 -99 -99 -99
-99 000 000 000 000 000 000 000 000 000 -99 -99 000 -99 000 000 -99 -99 -99 -99 000 000 000 000 -99 000 000 000 -99 -99 -99
000 000 000 000 000 -99 000 000 000 000 -99 -99 000 -99 -99 000 000 -99 -99 -99 000 000 000 000 000 000 -99 -99 -99 -99 -99
000 000 000 000 000 -99 000 000 000 000 -99 -99 000 000 000 000 -99 -99 -99 -99 000 000 000 000 000 -99 -99 -99 -99 -99 -99
000 000 000 000 000 000 000 000 000 000 -99 -99 -99 000 000 000 -99 -99 -99 -99 000 000 000 000 000 000 -99 -99 -99 -99 -99
-99 000 000 000 000 000 000 000 000 000 000 -99 -99 -99 000 000 000 000 000 -99 -99 000 000 000 000 000 -99 -99 -99 000 000
000 000 000 000 000 -99 -99 000 000 000 000 000 -99 -99 000 000 -99 000 000 -99 000 -99 000 000 000 -99 -99 -99 -99 000 000
000 000 000 000 000 000 -99 -99 -99 000 000 000 -99 -99 -99 -99 -99 000 000 000 000 000 -99 -99 000 000 000 000 -99 -99 000
000 000 000 000 000 -99 000 000 000 000 000 000 000 -99 -99 -99 -99 000 000 000 -99 000 -99 -99 000 000 000 000 -99 000 000
000 000 000 000 000 000 000 000 000 000 000 000 -99 -99 -99 -99 -99 -99 000 000 -99 -99 -99 000 000 000 000 000 -99 000 000
000 000 000 000 000 000 000 000 000 000 000 000 -99 -99 -99 -99 000 -99 000 000 -99 -99 -99 000 000 000 000 000 000 000 000
000 000 000 000 000 000 000 000 000 000 000 000 -99 -99 -99 000 000 -99 -99 -99 -99 -99 -99 000 000 000 000 000 000 -99 000
000 -99 000 000 000 000 001 001 000 000 -99 -99 -99 000 -99 000 000 -99 -99 -99 -99 -99 -99 000 000 000 000 000 000 000 000
000 -99 000 000 000 000 001 000 000 -99 -99 -99 000 000 -99 000 000 -99 -99 -99 -99 000 -99 -99 000 000 000 000 000 000 000
000 000 -99 -99 000 000 000 000 000 -99 -99 -99 -99 000 000 000 000 000 000 -99 -99 -99 000 -99 000 000 000 000 000 000 -99
000 000 000 -99 -99 -99 000 000 000 000 -99 -99 -99 000 000 000 000 000 000 -99 -99 000 000 -99 -99 000 000 000 000 000 -99
000 000 000 000 -99 -99 000 000 000 000 -99 -99 -99 -99 000 000 -99 000 000 -99 -99 000 000 -99 -99 -99 000 -99 000 000 -99
000 000 000 000 -99 -99 000 000 000 000 000 -99 -99 -99 000 000 -99 000 000 -99 000 000 000 -99 -99 -99 -99 -99 -99 -99 -99
000 000 000 000 000 000 -99 -99 000 000 000 -99 -99 -99 000 000 000 000 000 000 000 000 000 -99 -99 -99 -99 -99 -99 -99 -99
000 000 000 000 000 000 -99 000 000 000 -99 -99 -99 -99 000 000 000 000 000 000 000 000 000 -99 -99 -99 -99 -99 -99 -99 -99
000 000 000 000 000 000 000 000 000 000 -99 -99 -99 000 000 000 000 000 000 000 000 000 000 -99 -99 -99 -99 -99 -99 -99 -99
000 000 000 000 000 000 000 000 000 -99 -99 -99 000 000 000 000 000 000 000 000 000 000 000 -99 -99 -99 -99 -99 -99 -99 -99
000 000 000 000 000 000 000 000 000 -99 -99 -99 000 000 000 000 000 000 000 000 000 000 000 -99 -99 -99 -99 -99 -99 -99 -99
000 -99 000 000 000 000 000 000 000 000 -99 -99 000 000 000 000 000 000 000 000 000 000 000 -99 -99 -99 -99 -99 -99 -99 000
000 000 000 000 000 000 000 000 000 000 -99 -99 -99 000 000 000 000 000 000 000 000 000 000 -99 -99 -99 -99 -99 -99 -99 000
000 000 000 000 000 000 -99 000 000 000 000 -99 -99 -99 000 000 000 000 000 -99 000 000 000 -99 -99 -99 -99 -99 -99 -99 000
000 000 000 000 000 000 000 000 000 000 000 000 -99 000 000 000 000 000 000 -99 000 000 -99 -99 -99 -99 -99 -99 -99 -99 000
000 000 000 -99 000 000 -99 000 002 000 000 000 000 000 000 000 000 000 000 000 -99 000 -99 -99 -99 -99 -99 -99 -99 -99 000
000 000 000 000 000 000 000 001 002 000 000 000 000 000 000 000 000 000 000 000 -99 000 -99 -99 -99 -99 -99 -99 -99 -99 000
000 000 000 000 000 000 000 000 000 000 000 001 000 000 000 000 000 000 000 -99 -99 -99 -99 000 000 000 -99 -99 -99 -99 000
001 000 000 000 001 001 000 000 000 000 001 001 000 000 000 000 000 000 000 -99 -99 -99 000 000 000 000 -99 -99 -99 -99 000
000 000 000 001 014 006 000 000 000 000 000 000 -99 000 000 000 000 000 -99 -99 000 000 000 000 000 000 -99 000 -99 -99 000
000 000 001 020 022 017 002 000 000 000 000 000 000 000 000 000 000 -99 -99 000 000 -99 000 000 000 000 -99 000 -99 -99 000
000 001 001 017 039 033 002 000 000 000 -99 000 000 000 000 000 000 -99 -99 000 000 -99 -99 000 000 000 000 -99 000 000 000
000 003 002 005 019 004 000 000 000 000 -99 -99 000 000 000 000 000 000 -99 -99 -99 -99 -99 -99 000 000 000 -99 -99 -99 -99
001 000 000 002 009 001 000 000 000 000 -99 000 000 000 000 000 000 000 000 -99 -99 -99 000 000 000 000 000 -99 -99 -99 -99
000 000 000 000 003 000 000 -99 -99 000 -99 -99 000 000 000 000 000 000 000 -99 -99 -99 -99 000 000 000 000 -99 -99 -99 -99
000 -99 000 000 000 000 000 -99 -99 -99 -99 000 000 000 000 000 000 000 000 -99 -99 -99 000 000 000 000 -99 -99 -99 -99 -99
000 000 -99 000 000 000 -99 -99 -99 -99 000 000 000 000 000 000 000 000 000 -99 -99 -99 000 000 000 000 -99 -99 -99 -99 -99
000 000 -99 000 -99 000 000 000 000 000 000 000 000 000 000 000 000 000 000 -99 -99 000 000 001 001 000 000 000 -99 -99 -99
000 000 -99 -99 000 000 -99 -99 -99 000 000 000 000 000 000 000 000 000 000 000 000 000 001 002 001 000 000 000 -99 -99 -99
000 000 -99 -99 -99 000 -99 -99 000 000 000 000 000 000 000 000 000 000 000 000 000 000 002 002 000 000 000 000 -99 -99 -99
000 000 -99 -99 000 -99 -99 -99 -99 000 000 000 000 000 000 000 000 000 000 000 000 000 002 000 000 000 001 000 -99 -99 -99
000 -99 -99 000 000 -99 000 000 000 000 000 000 000 000 000 -99 000 000 000 000 000 000 000 000 000 000 002 -99 -99 -99 -99
-99 -99 000 000 000 000 000 000 000 000 000 000 000 000 000 -99 -99 000 000 000 000 000 000 000 000 000 001 -99 -99 -99 -99
-99 -99 -99 000 -99 000 001 000 000 000 000 000 000 000 -99 -99 -99 000 000 -99 -99 000 000 -99 000 000 -99 -99 000 -99 -99
-99 -99 -99 -99 -99 000 001 000 001 000 000 000 000 000 -99 -99 -99 000 000 -99 000 000 000 000 000 000 000 000 000 -99 -99
-99 -99 -99 -99 000 000 000 000 001 001 001 002 000 000 000 -99 000 000 000 000 000 000 -99 -99 -99 -99 000 000 -99 -99 -99
-99 -99 -99 000 000 000 001 001 002 002 003 004 000 000 000 000 000 000 000 000 001 000 000 -99 -99 000 000 000 -99 -99 -99
-99 -99 000 000 000 000 005 002 002 002 001 003 000 000 -99 000 000 000 000 003 002 000 -99 -99 -99 000 -99 -99 -99 -99 -99
-99 -99 000 000 001 003 004 001 001 001 001 000 000 000 000 000 000 000 001 002 000 000 -99 -99 -99 -99 -99 -99 -99 -99 -99
-99 -99 000 000 001 001 001 001 000 000 000 000 -99 000 000 000 000 000 001 000 000 000 -99 -99 -99 -99 -99 -99 -99 -99 -99
-99 -99 000 002 000 000 000 000 000 000 000 -99 -99 000 000 000 000 000 000 000 000 000 -99 -99 -99 -99 -99 -99 -99 -99 -99
